27	3

10	10	10	

0	0	0	0	3	2	3	4	
4	3	5	2	2	5	7	
4	5	4	3	2	5	6	
8	5	2	2	3	5	6	8	
3	4	1	4	3	9	10	12	
2	5	5	4	2	10	11	
6	3	5	2	2	10	11	
3	2	4	4	2	10	11	
8	3	2	2	3	13	15	16	
5	3	2	4	1	14	
3	3	3	2	1	13	
3	4	1	4	1	13	
3	1	4	4	1	18	
8	2	2	2	1	17	
3	5	5	4	2	17	19	
1	1	5	4	2	17	20	
8	4	5	4	1	21	
1	3	2	3	2	22	24	
1	5	3	3	2	21	23	
3	2	4	6	1	21	
1	1	6	2	1	25	
1	3	2	1	1	25	
3	1	0	4	1	25	
4	2	2	1	1	26	
2	0	1	3	1	27	
5	2	2	2	1	27	
0	0	0	0	0	
